30
5
169806
0
0
9 6 3 13 7
1
0
21 41 20 23 19
2
0
15 23 10 30 30
3
0
72 36 61 42 56
4
0
104 63 73 69 100
5
0
25 29 41 25 33
6
0
120 179 162 144 152
7
0
16 24 26 25 15
8
0
5 2 5 5 7
9
0
85 81 94 75 79
10
0
69 56 65 47 65
11
0
67 33 40 32 41
12
0
26 30 30 23 40
13
0
24 22 30 38 17
14
0
148 166 124 171 164
15
0
74 84 78 97 77
16
0
20 15 19 9 18
17
0
21 12 11 15 15
18
0
55 44 35 39 56
19
0
23 22 17 15 24
20
0
116 144 119 112 123
21
0
168 163 139 148 142
22
0
28 34 24 31 27
23
0
27 26 20 33 22
24
0
6 3 4 6 4
25
0
29 17 22 32 21
26
0
120 137 131 120 98
27
0
60 71 77 65 63
28
0
14 26 29 20 17
29
0
31 17 29 23 17
